interface isimple_protocol
{
  enum result {OK, FAILED, ERROR};
  in result connect();
  in result disconnect();
  behavior
  {
    on connect: reply(result.OK);    // Set reply value to 'result.OK'
    on disconnect: reply(result.OK); // Set reply value to 'result.OK'
  }
}
